
Gurobi 10.0.3 (linux64, gurobi_cl) logging started Thu Nov  2 11:48:43 2023

Set parameter Username
Set parameter TimeLimit to value 3600
Set parameter LogFile to value "RCPSP_935.log"
Set parameter Threads to value 32
Academic license - for non-commercial use only - expires 2024-10-30
Using license file /home/jrivera6/gurobi-licenses/v1003/compute-0-34/gurobi.lic

Gurobi Optimizer version 10.0.3 build v10.0.3rc0 (linux64)
Copyright (c) 2023, Gurobi Optimization, LLC

Read MPS format model from file RCPSP_935.mps
Reading time = 0.05 seconds
RCPSP_935: 19662 rows, 7750 columns, 71936 nonzeros

CPU model: Intel(R) Xeon(R) Gold 6130 CPU @ 2.10GHz, instruction set [SSE2|AVX|AVX2|AVX512]
Thread count: 32 physical cores, 32 logical processors, using up to 32 threads

Optimize a model with 19662 rows, 7750 columns and 71936 nonzeros
Model fingerprint: 0x7faaecca
Variable types: 62 continuous, 7688 integer (7688 binary)
Coefficient statistics:
  Matrix range     [1e+00, 4e+02]
  Objective range  [1e+00, 1e+00]
  Bounds range     [1e+00, 1e+00]
  RHS range        [1e+00, 4e+02]
Presolve removed 3972 rows and 881 columns (presolve time = 5s) ...
Presolve removed 9428 rows and 3640 columns
Presolve time: 5.47s
Presolved: 10234 rows, 4110 columns, 39047 nonzeros
Variable types: 61 continuous, 4049 integer (4049 binary)

Root simplex log...

Iteration    Objective       Primal Inf.    Dual Inf.      Time
       0    8.2000000e+01   2.851200e+04   0.000000e+00      6s
    1308    8.2000000e+01   0.000000e+00   0.000000e+00      6s

Root relaxation: objective 8.200000e+01, 1308 iterations, 0.03 seconds (0.01 work units)

    Nodes    |    Current Node    |     Objective Bounds      |     Work
 Expl Unexpl |  Obj  Depth IntInf | Incumbent    BestBd   Gap | It/Node Time

     0     0   82.00000    0   74          -   82.00000      -     -    6s
     0     0   82.00000    0  200          -   82.00000      -     -    8s
     0     0   82.00000    0  213          -   82.00000      -     -    8s
     0     0   82.00000    0  125          -   82.00000      -     -   11s
     0     0   82.00000    0  193          -   82.00000      -     -   11s
     0     0   82.00000    0   47          -   82.00000      -     -   12s
     0     0   82.00000    0   66          -   82.00000      -     -   12s
     0     0   82.00000    0   51          -   82.00000      -     -   14s
     0     0   82.00000    0   83          -   82.00000      -     -   14s
     0     0   82.00000    0   83          -   82.00000      -     -   15s
     0     0   82.00000    0  302          -   82.00000      -     -   16s
     0     0   82.00000    0  107          -   82.00000      -     -   17s
H    0     0                     350.0000000   82.00000  76.6%     -   17s
     0     0   82.00000    0   84  350.00000   82.00000  76.6%     -   17s
H    0     0                     224.0000000   82.00000  63.4%     -   24s
H    0     2                     206.0000000   82.00000  60.2%     -   30s
     0     2   82.00000    0   65  206.00000   82.00000  60.2%     -   30s
     6    10   82.00000    3  201  206.00000   82.00000  60.2%   264   35s
    21    31   82.00000    5  187  206.00000   82.00000  60.2%   217   40s
H   39    56                     199.0000000   82.00000  58.8%   186   46s
H   40    56                     194.0000000   82.00000  57.7%   192   46s
H   41    56                     190.0000000   82.00000  56.8%   195   46s
H   45    56                     189.0000000   82.00000  56.6%   188   46s
    70    87   82.00000    7  212  189.00000   82.00000  56.6%   205   84s
   102   111   82.00000    8  214  189.00000   82.00000  56.6%   188   90s
H  103   111                     187.0000000   82.00000  56.1%   186   90s
H  104   111                     184.0000000   82.00000  55.4%   188   90s
H  122   111                     180.0000000   82.00000  54.4%   165   90s
   166   184   82.00000   10  168  180.00000   82.00000  54.4%   142   97s
   276   279   82.00000   12  164  180.00000   82.00000  54.4%   110  100s
   396   370   82.00000   15  161  180.00000   82.00000  54.4%  83.5  119s
H  398   370                     169.0000000   82.00000  51.5%  83.1  119s
H  413   370                     166.0000000   82.00000  50.6%  81.0  119s
H  418   370                     162.0000000   82.00000  49.4%  80.2  119s
   428   458   82.00000   16  161  162.00000   82.00000  49.4%  79.1  120s
   723   756   82.00000   21  214  162.00000   82.00000  49.4%  56.6  126s
  1257  1270   82.00000   25  202  162.00000   82.00000  49.4%  41.9  130s
H 1552  1438                     137.0000000   82.00000  40.1%  38.3  145s
H 1555  1438                     136.0000000   82.00000  39.7%  38.2  145s
H 1988  1760                     110.0000000   82.00000  25.5%  34.3  259s
H 1989  1760                     105.0000000   82.00000  21.9%  34.9  259s
H 2010  1760                     104.0000000   82.00000  21.2%  35.5  259s
  2021  1729   82.00000   31  163  104.00000   82.00000  21.2%  35.7  427s
H 2025  1729                     100.0000000   82.00000  18.0%  35.6  427s
H 2025  1729                      99.0000000   82.00000  17.2%  35.6  427s
H 2026  1729                      98.0000000   82.00000  16.3%  35.7  427s
H 2029  1729                      94.0000000   82.00000  12.8%  35.7  428s
  2086  1749   82.01165   32  225   94.00000   82.00000  12.8%  39.0  434s
  2193  1811   82.06971   33  212   94.00000   82.00000  12.8%  43.4  436s
  2539  1993   82.17923   44  149   94.00000   82.00000  12.8%  43.8  441s
  3132  1755   83.00000   18   84   94.00000   82.00000  12.8%  42.4  486s
H 3136  1670                      93.0000000   82.00000  11.8%  42.4  490s
H 3140  1588                      92.0000000   82.00000  10.9%  42.3  496s
  3143  1590   85.00000   14  141   92.00000   82.00000  10.9%  42.3  500s
  3146  1595   82.03188   16  124   92.00000   82.00000  10.9%  49.9  508s
  3152  1605   82.40495   18  175   92.00000   82.00000  10.9%  50.1  511s
  3176  1641   87.00000   20  129   92.00000   82.03903  10.8%  50.1  516s
  3240  1677   87.00000   22  133   92.00000   82.05335  10.8%  50.4  561s
H 3243  1596                      89.0000000   82.05335  7.81%  50.5  561s
H 3304  1523                      89.0000000   82.14545  7.70%  50.6  683s
H 3306  1450                      88.0000000   82.15385  6.64%  50.7  683s
H 3326  1375                      86.0000000   82.15385  4.47%  50.6  683s
  3336  1328     cutoff   23        86.00000   82.15385  4.47%  50.5  705s
  3403  1278     cutoff   24        86.00000   82.19345  4.43%  49.9  725s
  3509  1301   82.30000   27  127   86.00000   82.19345  4.43%  49.6  731s
  3562  1339   82.30000   28  146   86.00000   82.19345  4.43%  49.8  735s
  3700  1395   83.00000   31  119   86.00000   82.19345  4.43%  49.4  740s
  3854  1463   85.00000   33  135   86.00000   82.19345  4.43%  48.4  747s
  3930  1500     cutoff   33        86.00000   82.19345  4.43%  48.1  751s
  4117  1576   85.00000   35  136   86.00000   82.19345  4.43%  47.0  759s
  4218  1615   85.00000   37  131   86.00000   82.19345  4.43%  46.6  762s
  4321  1641   85.00000   39  130   86.00000   82.19345  4.43%  45.9  767s
  4427  1665 infeasible   42        86.00000   82.19345  4.43%  45.6  772s
  4528  1695     cutoff   41        86.00000   82.19345  4.43%  45.4  776s
  4643  1715   85.00000   44  146   86.00000   82.19345  4.43%  44.9  780s
  4887  1757   85.00000   47  131   86.00000   82.19345  4.43%  44.2  790s
  5017  1780 infeasible   50        86.00000   82.19345  4.43%  44.0  795s
  5350  1874 infeasible   52        86.00000   82.30000  4.30%  42.7  803s
* 5494  1761             122      85.0000000   82.30000  3.18%  42.2  803s
  5513  1747   83.00000   22   76   85.00000   82.30000  3.18%  42.3  808s
  5707  1776   83.00000   26   66   85.00000   82.30000  3.18%  41.9  815s
  5847  1806   83.00000   34   83   85.00000   82.30000  3.18%  42.0  820s
  6158  1871   83.00000   46  144   85.00000   82.30000  3.18%  41.8  829s
  6322  1893     cutoff   51        85.00000   82.30000  3.18%  41.7  834s
  6495  1898 infeasible   50        85.00000   82.30000  3.18%  41.4  839s
H 6500  1834                      84.0000000   82.30000  2.02%  41.4  839s
  6621  1655 infeasible   53        84.00000   83.00000  1.19%  41.3  845s
  6863  1659     cutoff   27        84.00000   83.00000  1.19%  41.5  859s
  7378  2572   83.00000   35  129   84.00000   83.00000  1.19%  41.6  868s
  9842  2911   83.00000   53   53   84.00000   83.00000  1.19%  34.0  884s
*11711  2911             121      84.0000000   83.00000  1.19%  30.5  884s
 16394  2094 infeasible   55        84.00000   83.00000  1.19%  25.3  897s
 17025  2043   83.00000   40   99   84.00000   83.00000  1.19%  26.0  911s
 17681  2415   83.00000   43   86   84.00000   83.00000  1.19%  26.5  944s
 20231  2079 infeasible   60        84.00000   83.00000  1.19%  24.4  966s
 21280  1840   83.00000   51  142   84.00000   83.00000  1.19%  25.0  987s
 22228  1646 infeasible   50        84.00000   83.00000  1.19%  25.6 1007s
 23393  2564   83.00000   42  101   84.00000   83.00000  1.19%  25.9 1030s
 34676  2565   83.00000   48   84   84.00000   83.00000  1.19%  20.8 1072s
 34681  2568   83.00383   62   28   84.00000   83.00000  1.19%  20.7 1075s
 34689  2574   83.00000   46  159   84.00000   83.00000  1.19%  20.7 1080s
 34695  2579   83.00000   30   24   84.00000   83.00000  1.19%  21.3 1086s
 34702  2582   83.00000   33   69   84.00000   83.00000  1.19%  21.3 1090s
 34726  2579   83.00000   36   74   84.00000   83.00000  1.19%  21.3 1095s
 34749  2574   83.00000   38   99   84.00000   83.00000  1.19%  21.4 1101s
 34767  2573   83.00000   39   12   84.00000   83.00000  1.19%  21.5 1116s
 34824  2566   83.00000   42   19   84.00000   83.00000  1.19%  22.0 1143s
 34846  2555 infeasible   43        84.00000   83.00000  1.19%  22.0 1145s
 34878  2550     cutoff   44        84.00000   83.00000  1.19%  22.0 1186s

Cutting planes:
  Learned: 1
  Gomory: 14
  Cover: 143
  Implied bound: 11
  Projected implied bound: 1
  Clique: 170
  MIR: 15
  StrongCG: 10
  Flow cover: 91
  GUB cover: 4
  Zero half: 16
  RLT: 18
  Relax-and-lift: 21

Explored 35002 nodes (798728 simplex iterations) in 1190.88 seconds (48.65 work units)
Thread count was 32 (of 32 available processors)

Solution count 10: 84 84 84 ... 93

Optimal solution found (tolerance 1.00e-04)
Best objective 8.400000000000e+01, best bound 8.400000000000e+01, gap 0.0000%

Wrote result file 'RCPSP_935.sol'

